language Essence 1.3
letting nnodes be 13
letting nrings be 7
letting capacity be 5
letting demand be {{1, 7},
{1, 10},
{1, 12},
{1, 13},
{2, 9},
{3, 4},
{3, 7},
{3, 9},
{3, 10},
{3, 12},
{4, 5},
{4, 6},
{4, 7},
{4, 9},
{4, 10},
{5, 10},
{6, 10},
{7, 8},
{8, 11},
{8, 13},
{9, 12},
{11, 12},
{11, 13},
{12, 13}}
